eastwest = 7;
northsouth = 12;
cost = [|  1,  1,  1, 1,  1,  1,  1
 |  1,  1,  1, 1,  1,  1,  1
 |  1,  1,  1, 1,  1,  1,  1
 |  1,  1,  1, 1,  1,  1,  1
 | -1, -1, -1, 1,  1,  1,  1
 | -1, -1,  1, 1,  1,  1,  1
 | -1, -1,  1, 1,  1,  1, -1
 | -1,  1,  1, 1,  1,  1, -1
 | -1,  1,  1, 1,  1,  1, -1
 |  1,  1,  1, 1,  1, -1, -1
 |  1,  1,  1, 1,  1, -1, -1
 |  1,  1,  1, 1, -1, -1, -1
 |];
ore = [| 4, 7, 0, 0, 0, 0, 3
 | 0, 0, 0, 0, 3, 0, 4
 | 0, 0, 4, 0, 7, 0, 0
 | 7, 0, 3, 0, 0, 0, 0
 | 0, 0, 0, 0, 3, 0, 0
 | 0, 0, 0, 7, 0, 0, 7
 | 0, 0, 0, 0, 0, 4, 0
 | 0, 4, 4, 0, 0, 0, 0
 | 0, 0, 0, 0, 0, 3, 0
 | 0, 0, 3, 0, 4, 0, 0
 | 3, 0, 0, 0, 0, 0, 0
 | 7, 0, 7, 4, 0, 0, 0
 |];
budget = 16;
length = 16;
start = [(1,1),(3,4)];
